* #variable= 106 #constraint= 320
min: 0 x1 +0 x3 +1 x5 -1 x1 x5 -1 x3 x5 +1 x1 x3 x5 +1 x7 x3 x5 -1 x7 x1 x3 x5 +0 x5 +1 x9 -1 x1 x9 -1 x5 x9 +1 x1 x5 x9 +1 x11 x5 x9 -1 x11 x1 x5 x9 +0 x9 +1 x13 -1 x1 x13 -1 x9 x13 +1 x1 x9 x13 +1 x15 x9 x13 -1 x15 x1 x9 x13 +0 x13 +1 x17 -1 x1 x17 -1 x13 x17 +1 x1 x13 x17 +1 x19 x13 x17 -1 x19 x1 x13 x17 +1 x3 -1 x1 x3 +0 x1 +0 x3 +1 x5 -1 x1 x5 +0 x5 +1 x9 -1 x1 x9 +0 x9 +1 x13 -1 x1 x13 +0 x13 +1 x17 -1 x1 x17 +1 x3 -1 x1 x3 +1 x1 x3 x5 x7 -1 x3 x5 x7 +1 x1 x3 x9 x22 -1 x3 x9 x22 +1 x1 x3 x13 x23 -1 x3 x13 x23 +1 x1 x3 x17 x24 -1 x3 x17 x24 +1 x1 x5 x9 x11 -1 x5 x9 x11 +1 x1 x5 x13 x25 -1 x5 x13 x25 +1 x1 x5 x17 x26 -1 x5 x17 x26 +1 x1 x9 x13 x15 -1 x9 x13 x15 +1 x1 x9 x17 x27 -1 x9 x17 x27 +1 x1 x13 x17 x19 -1 x13 x17 x19; 
+1 x1 = 0;
+1 x3 = 1;
 +1 x1  -1 x3  -1 x5  -1 x7  >= -2;
 +1 x1  -1 x3  +1 x5  >= 0;
-1 x1 +1 x13 >= 0;
-1 x1 +1 x17 >= 0;
-1 x1 +1 x3 >= 0;
-1 x1 +1 x5 >= 0;
-1 x1 +1 x9 >= 0;
 +1 x12 = 0;
  +1 x16 = 0;
  +1 x20 = 0;
  +1 x21 = 0;
  +1 x8 = 0;
 +1 x11 +1 x12 -1 x32 >= 0;
+1 x11 +1 x15 -1 x25 >= 0;
+1 x11 +1 x16 -1 x29 >= 0;
+1 x11 +1 x22 -1 x30 >= 0;
+1 x11 +1 x22 -1 x31 >= 0;
+1 x11 +1 x25 -1 x25 >= 0;
+1 x11 +1 x25 -1 x34 >= 0;
+1 x11 +1 x26 -1 x26 >= 0;
+1 x11 +1 x26 -1 x35 >= 0;
+1 x11 +1 x27 -1 x26 >= 0;
+1 x11 +1 x28 -1 x25 >= 0;
+1 x11 +1 x7 -1 x33 >= 0;
-1 x11 +1 x12 +1 x32 >= 0;
-1 x11 +1 x15 +1 x25 >= 0;
-1 x11 +1 x16 +1 x29 >= 0;
-1 x11 +1 x22 +1 x30 >= 0;
-1 x11 +1 x22 +1 x31 >= 0;
-1 x11 +1 x25 +1 x25 >= 0;
-1 x11 +1 x25 +1 x34 >= 0;
-1 x11 +1 x26 +1 x26 >= 0;
-1 x11 +1 x26 +1 x35 >= 0;
-1 x11 +1 x27 +1 x26 >= 0;
-1 x11 +1 x28 +1 x25 >= 0;
-1 x11 +1 x7 +1 x33 >= 0;
+1 x12 +1 x11 -1 x16 >= 0;
+1 x12 +1 x16 -1 x38 >= 0;
+1 x12 +1 x20 -1 x25 >= 0;
+1 x12 +1 x21 -1 x36 >= 0;
+1 x12 +1 x25 -1 x20 >= 0;
+1 x12 +1 x26 -1 x21 >= 0;
+1 x12 +1 x7 -1 x8 >= 0;
+1 x12 +1 x8 -1 x37 >= 0;
-1 x12 +1 x11 +1 x16 >= 0;
-1 x12 +1 x16 +1 x38 >= 0;
-1 x12 +1 x20 +1 x25 >= 0;
-1 x12 +1 x21 +1 x36 >= 0;
-1 x12 +1 x25 +1 x20 >= 0;
-1 x12 +1 x26 +1 x21 >= 0;
-1 x12 +1 x7 +1 x8 >= 0;
-1 x12 +1 x8 +1 x37 >= 0;
+1 x15 +1 x11 -1 x43 >= 0;
+1 x15 +1 x16 -1 x42 >= 0;
+1 x15 +1 x19 -1 x27 >= 0;
+1 x15 +1 x20 -1 x39 >= 0;
+1 x15 +1 x22 -1 x22 >= 0;
+1 x15 +1 x22 -1 x45 >= 0;
+1 x15 +1 x23 -1 x22 >= 0;
+1 x15 +1 x25 -1 x40 >= 0;
+1 x15 +1 x25 -1 x41 >= 0;
+1 x15 +1 x27 -1 x27 >= 0;
+1 x15 +1 x27 -1 x44 >= 0;
-1 x15 +1 x11 +1 x43 >= 0;
-1 x15 +1 x16 +1 x42 >= 0;
-1 x15 +1 x19 +1 x27 >= 0;
-1 x15 +1 x20 +1 x39 >= 0;
-1 x15 +1 x22 +1 x22 >= 0;
-1 x15 +1 x22 +1 x45 >= 0;
-1 x15 +1 x23 +1 x22 >= 0;
-1 x15 +1 x25 +1 x40 >= 0;
-1 x15 +1 x25 +1 x41 >= 0;
-1 x15 +1 x27 +1 x27 >= 0;
-1 x15 +1 x27 +1 x44 >= 0;
+1 x16 +1 x11 -1 x12 >= 0;
+1 x16 +1 x12 -1 x48 >= 0;
+1 x16 +1 x15 -1 x20 >= 0;
+1 x16 +1 x20 -1 x15 >= 0;
+1 x16 +1 x21 -1 x46 >= 0;
+1 x16 +1 x22 -1 x8 >= 0;
+1 x16 +1 x27 -1 x21 >= 0;
+1 x16 +1 x28 -1 x20 >= 0;
+1 x16 +1 x8 -1 x47 >= 0;
-1 x16 +1 x11 +1 x12 >= 0;
-1 x16 +1 x12 +1 x48 >= 0;
-1 x16 +1 x15 +1 x20 >= 0;
-1 x16 +1 x20 +1 x15 >= 0;
-1 x16 +1 x21 +1 x46 >= 0;
-1 x16 +1 x22 +1 x8 >= 0;
-1 x16 +1 x27 +1 x21 >= 0;
-1 x16 +1 x28 +1 x20 >= 0;
-1 x16 +1 x8 +1 x47 >= 0;
+1 x19 +1 x15 -1 x28 >= 0;
+1 x19 +1 x20 -1 x50 >= 0;
+1 x19 +1 x21 -1 x49 >= 0;
+1 x19 +1 x23 -1 x23 >= 0;
+1 x19 +1 x23 -1 x51 >= 0;
+1 x19 +1 x24 -1 x23 >= 0;
+1 x19 +1 x25 -1 x25 >= 0;
+1 x19 +1 x25 -1 x52 >= 0;
+1 x19 +1 x26 -1 x25 >= 0;
+1 x19 +1 x27 -1 x28 >= 0;
+1 x19 +1 x28 -1 x53 >= 0;
-1 x19 +1 x15 +1 x28 >= 0;
-1 x19 +1 x20 +1 x50 >= 0;
-1 x19 +1 x21 +1 x49 >= 0;
-1 x19 +1 x23 +1 x23 >= 0;
-1 x19 +1 x23 +1 x51 >= 0;
-1 x19 +1 x24 +1 x23 >= 0;
-1 x19 +1 x25 +1 x25 >= 0;
-1 x19 +1 x25 +1 x52 >= 0;
-1 x19 +1 x26 +1 x25 >= 0;
-1 x19 +1 x27 +1 x28 >= 0;
-1 x19 +1 x28 +1 x53 >= 0;
+1 x20 +1 x12 -1 x55 >= 0;
+1 x20 +1 x15 -1 x16 >= 0;
+1 x20 +1 x16 -1 x56 >= 0;
+1 x20 +1 x19 -1 x21 >= 0;
+1 x20 +1 x21 -1 x19 >= 0;
+1 x20 +1 x23 -1 x8 >= 0;
+1 x20 +1 x25 -1 x12 >= 0;
+1 x20 +1 x28 -1 x16 >= 0;
+1 x20 +1 x8 -1 x54 >= 0;
-1 x20 +1 x12 +1 x55 >= 0;
-1 x20 +1 x15 +1 x16 >= 0;
-1 x20 +1 x16 +1 x56 >= 0;
-1 x20 +1 x19 +1 x21 >= 0;
-1 x20 +1 x21 +1 x19 >= 0;
-1 x20 +1 x23 +1 x8 >= 0;
-1 x20 +1 x25 +1 x12 >= 0;
-1 x20 +1 x28 +1 x16 >= 0;
-1 x20 +1 x8 +1 x54 >= 0;
+1 x21 +1 x12 -1 x59 >= 0;
+1 x21 +1 x16 -1 x60 >= 0;
+1 x21 +1 x19 -1 x20 >= 0;
+1 x21 +1 x20 -1 x57 >= 0;
+1 x21 +1 x24 -1 x8 >= 0;
+1 x21 +1 x26 -1 x12 >= 0;
+1 x21 +1 x27 -1 x16 >= 0;
+1 x21 +1 x8 -1 x58 >= 0;
-1 x21 +1 x12 +1 x59 >= 0;
-1 x21 +1 x16 +1 x60 >= 0;
-1 x21 +1 x19 +1 x20 >= 0;
-1 x21 +1 x20 +1 x57 >= 0;
-1 x21 +1 x24 +1 x8 >= 0;
-1 x21 +1 x26 +1 x12 >= 0;
-1 x21 +1 x27 +1 x16 >= 0;
-1 x21 +1 x8 +1 x58 >= 0;
+1 x22 +1 x11 -1 x7 >= 0;
+1 x22 +1 x15 -1 x23 >= 0;
+1 x22 +1 x16 -1 x61 >= 0;
+1 x22 +1 x23 -1 x23 >= 0;
+1 x22 +1 x23 -1 x63 >= 0;
+1 x22 +1 x24 -1 x24 >= 0;
+1 x22 +1 x24 -1 x64 >= 0;
+1 x22 +1 x27 -1 x24 >= 0;
+1 x22 +1 x28 -1 x23 >= 0;
+1 x22 +1 x7 -1 x65 >= 0;
+1 x22 +1 x8 -1 x62 >= 0;
-1 x22 +1 x11 +1 x7 >= 0;
-1 x22 +1 x15 +1 x23 >= 0;
-1 x22 +1 x16 +1 x61 >= 0;
-1 x22 +1 x23 +1 x23 >= 0;
-1 x22 +1 x23 +1 x63 >= 0;
-1 x22 +1 x24 +1 x24 >= 0;
-1 x22 +1 x24 +1 x64 >= 0;
-1 x22 +1 x27 +1 x24 >= 0;
-1 x22 +1 x28 +1 x23 >= 0;
-1 x22 +1 x7 +1 x65 >= 0;
-1 x22 +1 x8 +1 x62 >= 0;
+1 x23 +1 x15 -1 x22 >= 0;
+1 x23 +1 x19 -1 x24 >= 0;
+1 x23 +1 x20 -1 x66 >= 0;
+1 x23 +1 x22 -1 x22 >= 0;
+1 x23 +1 x22 -1 x70 >= 0;
+1 x23 +1 x24 -1 x24 >= 0;
+1 x23 +1 x24 -1 x68 >= 0;
+1 x23 +1 x25 -1 x7 >= 0;
+1 x23 +1 x28 -1 x22 >= 0;
+1 x23 +1 x7 -1 x69 >= 0;
+1 x23 +1 x8 -1 x67 >= 0;
-1 x23 +1 x15 +1 x22 >= 0;
-1 x23 +1 x19 +1 x24 >= 0;
-1 x23 +1 x20 +1 x66 >= 0;
-1 x23 +1 x22 +1 x22 >= 0;
-1 x23 +1 x22 +1 x70 >= 0;
-1 x23 +1 x24 +1 x24 >= 0;
-1 x23 +1 x24 +1 x68 >= 0;
-1 x23 +1 x25 +1 x7 >= 0;
-1 x23 +1 x28 +1 x22 >= 0;
-1 x23 +1 x7 +1 x69 >= 0;
-1 x23 +1 x8 +1 x67 >= 0;
+1 x24 +1 x19 -1 x23 >= 0;
+1 x24 +1 x21 -1 x71 >= 0;
+1 x24 +1 x22 -1 x22 >= 0;
+1 x24 +1 x22 -1 x75 >= 0;
+1 x24 +1 x23 -1 x23 >= 0;
+1 x24 +1 x23 -1 x73 >= 0;
+1 x24 +1 x26 -1 x7 >= 0;
+1 x24 +1 x27 -1 x22 >= 0;
+1 x24 +1 x7 -1 x74 >= 0;
+1 x24 +1 x8 -1 x72 >= 0;
-1 x24 +1 x19 +1 x23 >= 0;
-1 x24 +1 x21 +1 x71 >= 0;
-1 x24 +1 x22 +1 x22 >= 0;
-1 x24 +1 x22 +1 x75 >= 0;
-1 x24 +1 x23 +1 x23 >= 0;
-1 x24 +1 x23 +1 x73 >= 0;
-1 x24 +1 x26 +1 x7 >= 0;
-1 x24 +1 x27 +1 x22 >= 0;
-1 x24 +1 x7 +1 x74 >= 0;
-1 x24 +1 x8 +1 x72 >= 0;
+1 x25 +1 x11 -1 x82 >= 0;
+1 x25 +1 x12 -1 x79 >= 0;
+1 x25 +1 x15 -1 x11 >= 0;
+1 x25 +1 x19 -1 x26 >= 0;
+1 x25 +1 x20 -1 x76 >= 0;
+1 x25 +1 x23 -1 x77 >= 0;
+1 x25 +1 x23 -1 x78 >= 0;
+1 x25 +1 x26 -1 x26 >= 0;
+1 x25 +1 x26 -1 x81 >= 0;
+1 x25 +1 x28 -1 x11 >= 0;
+1 x25 +1 x7 -1 x80 >= 0;
-1 x25 +1 x11 +1 x82 >= 0;
-1 x25 +1 x12 +1 x79 >= 0;
-1 x25 +1 x15 +1 x11 >= 0;
-1 x25 +1 x19 +1 x26 >= 0;
-1 x25 +1 x20 +1 x76 >= 0;
-1 x25 +1 x23 +1 x77 >= 0;
-1 x25 +1 x23 +1 x78 >= 0;
-1 x25 +1 x26 +1 x26 >= 0;
-1 x25 +1 x26 +1 x81 >= 0;
-1 x25 +1 x28 +1 x11 >= 0;
-1 x25 +1 x7 +1 x80 >= 0;
+1 x26 +1 x11 -1 x89 >= 0;
+1 x26 +1 x12 -1 x86 >= 0;
+1 x26 +1 x19 -1 x25 >= 0;
+1 x26 +1 x21 -1 x83 >= 0;
+1 x26 +1 x24 -1 x84 >= 0;
+1 x26 +1 x24 -1 x85 >= 0;
+1 x26 +1 x25 -1 x25 >= 0;
+1 x26 +1 x25 -1 x88 >= 0;
+1 x26 +1 x27 -1 x11 >= 0;
+1 x26 +1 x7 -1 x87 >= 0;
-1 x26 +1 x11 +1 x89 >= 0;
-1 x26 +1 x12 +1 x86 >= 0;
-1 x26 +1 x19 +1 x25 >= 0;
-1 x26 +1 x21 +1 x83 >= 0;
-1 x26 +1 x24 +1 x84 >= 0;
-1 x26 +1 x24 +1 x85 >= 0;
-1 x26 +1 x25 +1 x25 >= 0;
-1 x26 +1 x25 +1 x88 >= 0;
-1 x26 +1 x27 +1 x11 >= 0;
-1 x26 +1 x7 +1 x87 >= 0;
+1 x27 +1 x11 -1 x94 >= 0;
+1 x27 +1 x15 -1 x95 >= 0;
+1 x27 +1 x16 -1 x93 >= 0;
+1 x27 +1 x19 -1 x15 >= 0;
+1 x27 +1 x21 -1 x90 >= 0;
+1 x27 +1 x22 -1 x22 >= 0;
+1 x27 +1 x22 -1 x96 >= 0;
+1 x27 +1 x24 -1 x22 >= 0;
+1 x27 +1 x26 -1 x91 >= 0;
+1 x27 +1 x26 -1 x92 >= 0;
+1 x27 +1 x28 -1 x15 >= 0;
-1 x27 +1 x11 +1 x94 >= 0;
-1 x27 +1 x15 +1 x95 >= 0;
-1 x27 +1 x16 +1 x93 >= 0;
-1 x27 +1 x19 +1 x15 >= 0;
-1 x27 +1 x21 +1 x90 >= 0;
-1 x27 +1 x22 +1 x22 >= 0;
-1 x27 +1 x22 +1 x96 >= 0;
-1 x27 +1 x24 +1 x22 >= 0;
-1 x27 +1 x26 +1 x91 >= 0;
-1 x27 +1 x26 +1 x92 >= 0;
-1 x27 +1 x28 +1 x15 >= 0;
+1 x28 +1 x11 -1 x25 >= 0;
+1 x28 +1 x16 -1 x97 >= 0;
+1 x28 +1 x19 -1 x99 >= 0;
+1 x28 +1 x20 -1 x98 >= 0;
+1 x28 +1 x22 -1 x23 >= 0;
+1 x28 +1 x23 -1 x100 >= 0;
+1 x28 +1 x23 -1 x23 >= 0;
+1 x28 +1 x25 -1 x101 >= 0;
+1 x28 +1 x25 -1 x25 >= 0;
+1 x28 +1 x27 -1 x19 >= 0;
-1 x28 +1 x11 +1 x25 >= 0;
-1 x28 +1 x16 +1 x97 >= 0;
-1 x28 +1 x19 +1 x99 >= 0;
-1 x28 +1 x20 +1 x98 >= 0;
-1 x28 +1 x22 +1 x23 >= 0;
-1 x28 +1 x23 +1 x100 >= 0;
-1 x28 +1 x23 +1 x23 >= 0;
-1 x28 +1 x25 +1 x101 >= 0;
-1 x28 +1 x25 +1 x25 >= 0;
-1 x28 +1 x27 +1 x19 >= 0;
+1 x7 +1 x11 -1 x22 >= 0;
+1 x7 +1 x12 -1 x102 >= 0;
+1 x7 +1 x22 -1 x106 >= 0;
+1 x7 +1 x22 -1 x22 >= 0;
+1 x7 +1 x23 -1 x104 >= 0;
+1 x7 +1 x23 -1 x23 >= 0;
+1 x7 +1 x24 -1 x105 >= 0;
+1 x7 +1 x24 -1 x24 >= 0;
+1 x7 +1 x25 -1 x23 >= 0;
+1 x7 +1 x26 -1 x24 >= 0;
+1 x7 +1 x8 -1 x103 >= 0;
-1 x7 +1 x11 +1 x22 >= 0;
-1 x7 +1 x12 +1 x102 >= 0;
-1 x7 +1 x22 +1 x106 >= 0;
-1 x7 +1 x22 +1 x22 >= 0;
-1 x7 +1 x23 +1 x104 >= 0;
-1 x7 +1 x23 +1 x23 >= 0;
-1 x7 +1 x24 +1 x105 >= 0;
-1 x7 +1 x24 +1 x24 >= 0;
-1 x7 +1 x25 +1 x23 >= 0;
-1 x7 +1 x26 +1 x24 >= 0;
-1 x7 +1 x8 +1 x103 >= 0;
